\ This file was automatically generated by Zimpl
\ param n := 10;
\ set I := {0..n};
\ set R := {read "radio_nadajniki.txt" as "<1n,2n>" comment "#"};
\ set P := {<i,j> in I*I};
\ param zas[R] := read "radio_nadajniki.txt" as "<1n,2n>4n" comment "#";
\ param odleg[<i,j,k,l> in P*R] := sqrt((i-k)^2 + (j-l)^2);
\ var x[R] binary;
\ minimize fcelu: sum <i,j> in R do zas[i,j]*x[i,j];
\ param czywzas[<i,j,k,l> in P*R] := if odleg[i,j,k,l] <= zas[k,l] then 1 else 0 end;
\ subto ogr: forall <i,j> in P do sum <k,l> in R do czywzas[i,j,k,l]*x[k,l] >= 1;
\Problem name: sommer.zpl
Minimize
 fcelu:  +6 x#0#2 +6 x#0#0 +7 x#0#5 +2 x#5#6 +6 x#5#9 +6 x#9#6
  +3 x#1#6 +3 x#1#8 +3 x#8#6 +6 x#8#5 +5 x#8#1 +5 x#7#0
  +2 x#7#10 +6 x#4#9 +6 x#2#2
Subject to
 ogr_1:
  + x#2#2 + x#0#5 + x#0#0 + x#0#2 >= 1
 ogr_2:
  + x#2#2 + x#0#5 + x#0#0 + x#0#2 >= 1
 ogr_3:
  + x#2#2 + x#0#5 + x#0#0 + x#0#2 >= 1
 ogr_4:
  + x#2#2 + x#0#5 + x#0#0 + x#0#2 >= 1
 ogr_5:
  + x#2#2 + x#1#6 + x#0#5 + x#0#0 + x#0#2 >= 1
 ogr_6:
  + x#2#2 + x#4#9 + x#1#6 + x#0#5 + x#0#0 + x#0#2
  >= 1
 ogr_7:
  + x#2#2 + x#4#9 + x#1#8 + x#1#6 + x#5#9 + x#0#5
  + x#0#0 + x#0#2 >= 1
 ogr_8:
  + x#2#2 + x#4#9 + x#1#8 + x#1#6 + x#5#9 + x#0#5
  + x#0#2 >= 1
 ogr_9:
  + x#4#9 + x#1#8 + x#1#6 + x#5#9 + x#0#5 + x#0#2
  >= 1
 ogr_10:
  + x#4#9 + x#1#8 + x#5#9 + x#0#5 >= 1
 ogr_11:
  + x#4#9 + x#1#8 + x#5#9 + x#0#5 >= 1
 ogr_12:
  + x#2#2 + x#0#5 + x#0#0 + x#0#2 >= 1
 ogr_13:
  + x#2#2 + x#0#5 + x#0#0 + x#0#2 >= 1
 ogr_14:
  + x#2#2 + x#0#5 + x#0#0 + x#0#2 >= 1
 ogr_15:
  + x#2#2 + x#1#6 + x#0#5 + x#0#0 + x#0#2 >= 1
 ogr_16:
  + x#2#2 + x#4#9 + x#1#6 + x#0#5 + x#0#0 + x#0#2
  >= 1
 ogr_17:
  + x#2#2 + x#4#9 + x#1#8 + x#1#6 + x#5#9 + x#0#5
  + x#0#0 + x#0#2 >= 1
 ogr_18:
  + x#2#2 + x#4#9 + x#1#8 + x#1#6 + x#5#9 + x#0#5
  + x#0#2 >= 1
 ogr_19:
  + x#2#2 + x#4#9 + x#1#8 + x#1#6 + x#5#9 + x#0#5
  + x#0#2 >= 1
 ogr_20:
  + x#4#9 + x#1#8 + x#1#6 + x#5#9 + x#0#5 >= 1
 ogr_21:
  + x#4#9 + x#1#8 + x#1#6 + x#5#9 + x#0#5 >= 1
 ogr_22:
  + x#4#9 + x#1#8 + x#5#9 + x#0#5 >= 1
 ogr_23:
  + x#2#2 + x#7#0 + x#0#5 + x#0#0 + x#0#2 >= 1
 ogr_24:
  + x#2#2 + x#0#5 + x#0#0 + x#0#2 >= 1
 ogr_25:
  + x#2#2 + x#0#5 + x#0#0 + x#0#2 >= 1
 ogr_26:
  + x#2#2 + x#0#5 + x#0#0 + x#0#2 >= 1
 ogr_27:
  + x#2#2 + x#4#9 + x#1#6 + x#5#9 + x#0#5 + x#0#0
  + x#0#2 >= 1
 ogr_28:
  + x#2#2 + x#4#9 + x#8#5 + x#1#6 + x#5#9 + x#0#5
  + x#0#0 + x#0#2 >= 1
 ogr_29:
  + x#2#2 + x#4#9 + x#1#8 + x#1#6 + x#5#9 + x#0#5
  + x#0#2 >= 1
 ogr_30:
  + x#2#2 + x#4#9 + x#1#8 + x#1#6 + x#5#9 + x#0#5
  + x#0#2 >= 1
 ogr_31:
  + x#2#2 + x#4#9 + x#1#8 + x#1#6 + x#5#9 + x#0#5
  >= 1
 ogr_32:
  + x#4#9 + x#1#8 + x#5#9 + x#0#5 >= 1
 ogr_33:
  + x#4#9 + x#1#8 + x#5#9 + x#0#5 >= 1
 ogr_34:
  + x#2#2 + x#7#0 + x#0#5 + x#0#0 + x#0#2 >= 1
 ogr_35:
  + x#2#2 + x#7#0 + x#8#1 + x#0#5 + x#0#0 + x#0#2
  >= 1
 ogr_36:
  + x#2#2 + x#7#0 + x#8#5 + x#0#5 + x#0#0 + x#0#2
  >= 1
 ogr_37:
  + x#2#2 + x#7#0 + x#8#5 + x#0#5 + x#0#0 + x#0#2
  >= 1
 ogr_38:
  + x#2#2 + x#4#9 + x#8#5 + x#1#6 + x#5#9 + x#0#5
  + x#0#0 + x#0#2 >= 1
 ogr_39:
  + x#2#2 + x#4#9 + x#8#5 + x#1#6 + x#5#9 + x#0#5
  + x#0#0 + x#0#2 >= 1
 ogr_40:
  + x#2#2 + x#4#9 + x#8#5 + x#1#8 + x#1#6 + x#9#6
  + x#5#9 + x#5#6 + x#0#5 + x#0#2 >= 1
 ogr_41:
  + x#2#2 + x#4#9 + x#8#5 + x#1#8 + x#1#6 + x#5#9
  + x#0#5 + x#0#2 >= 1
 ogr_42:
  + x#4#9 + x#8#5 + x#1#8 + x#1#6 + x#5#9 + x#0#5
  >= 1
 ogr_43:
  + x#4#9 + x#1#8 + x#5#9 + x#0#5 >= 1
 ogr_44:
  + x#4#9 + x#1#8 + x#5#9 + x#0#5 >= 1
 ogr_45:
  + x#2#2 + x#7#0 + x#8#1 + x#0#5 + x#0#0 + x#0#2
  >= 1
 ogr_46:
  + x#2#2 + x#7#0 + x#8#1 + x#8#5 + x#0#5 + x#0#0
  + x#0#2 >= 1
 ogr_47:
  + x#2#2 + x#7#0 + x#8#1 + x#8#5 + x#0#5 + x#0#0
  + x#0#2 >= 1
 ogr_48:
  + x#2#2 + x#4#9 + x#7#0 + x#8#1 + x#8#5 + x#9#6
  + x#0#5 + x#0#0 + x#0#2 >= 1
 ogr_49:
  + x#2#2 + x#4#9 + x#7#0 + x#8#1 + x#8#5 + x#9#6
  + x#5#9 + x#0#5 + x#0#0 + x#0#2 >= 1
 ogr_50:
  + x#2#2 + x#4#9 + x#8#5 + x#9#6 + x#5#9 + x#5#6
  + x#0#5 + x#0#2 >= 1
 ogr_51:
  + x#2#2 + x#4#9 + x#8#5 + x#1#6 + x#9#6 + x#5#9
  + x#5#6 + x#0#5 + x#0#2 >= 1
 ogr_52:
  + x#2#2 + x#4#9 + x#8#5 + x#9#6 + x#5#9 + x#5#6
  + x#0#5 >= 1
 ogr_53:
  + x#4#9 + x#8#5 + x#1#8 + x#9#6 + x#5#9 + x#0#5
  >= 1
 ogr_54:
  + x#4#9 + x#8#5 + x#9#6 + x#5#9 + x#0#5 >= 1
 ogr_55:
  + x#4#9 + x#5#9 + x#0#5 >= 1
 ogr_56:
  + x#2#2 + x#7#0 + x#8#1 + x#8#5 + x#0#0 + x#0#2
  >= 1
 ogr_57:
  + x#2#2 + x#7#0 + x#8#1 + x#8#5 + x#0#5 + x#0#0
  + x#0#2 >= 1
 ogr_58:
  + x#2#2 + x#7#0 + x#8#1 + x#8#5 + x#9#6 + x#0#5
  + x#0#0 + x#0#2 >= 1
 ogr_59:
  + x#2#2 + x#7#0 + x#8#1 + x#8#5 + x#9#6 + x#5#9
  + x#0#5 + x#0#0 + x#0#2 >= 1
 ogr_60:
  + x#2#2 + x#4#9 + x#7#0 + x#8#1 + x#8#5 + x#9#6
  + x#5#9 + x#5#6 + x#0#5 + x#0#2 >= 1
 ogr_61:
  + x#2#2 + x#4#9 + x#8#1 + x#8#5 + x#9#6 + x#5#9
  + x#5#6 + x#0#5 + x#0#2 >= 1
 ogr_62:
  + x#2#2 + x#4#9 + x#8#5 + x#8#6 + x#9#6 + x#5#9
  + x#5#6 + x#0#5 >= 1
 ogr_63:
  + x#2#2 + x#4#9 + x#8#5 + x#9#6 + x#5#9 + x#5#6
  + x#0#5 >= 1
 ogr_64:
  + x#4#9 + x#8#5 + x#9#6 + x#5#9 + x#5#6 + x#0#5
  >= 1
 ogr_65:
  + x#4#9 + x#8#5 + x#9#6 + x#5#9 + x#0#5 >= 1
 ogr_66:
  + x#4#9 + x#7#10 + x#8#5 + x#9#6 + x#5#9 >= 1
 ogr_67:
  + x#2#2 + x#7#0 + x#8#1 + x#8#5 + x#0#0 >= 1
 ogr_68:
  + x#2#2 + x#7#0 + x#8#1 + x#8#5 + x#9#6 >= 1
 ogr_69:
  + x#2#2 + x#7#0 + x#8#1 + x#8#5 + x#9#6 + x#0#5
  + x#0#2 >= 1
 ogr_70:
  + x#2#2 + x#7#0 + x#8#1 + x#8#5 + x#9#6 + x#0#5
  >= 1
 ogr_71:
  + x#2#2 + x#4#9 + x#7#0 + x#8#1 + x#8#5 + x#8#6
  + x#9#6 + x#5#9 + x#0#5 >= 1
 ogr_72:
  + x#2#2 + x#4#9 + x#8#1 + x#8#5 + x#8#6 + x#9#6
  + x#5#9 + x#5#6 + x#0#5 >= 1
 ogr_73:
  + x#2#2 + x#4#9 + x#8#5 + x#8#6 + x#9#6 + x#5#9
  + x#5#6 + x#0#5 >= 1
 ogr_74:
  + x#4#9 + x#8#5 + x#8#6 + x#9#6 + x#5#9 + x#5#6
  + x#0#5 >= 1
 ogr_75:
  + x#4#9 + x#8#5 + x#8#6 + x#9#6 + x#5#9 + x#0#5
  >= 1
 ogr_76:
  + x#4#9 + x#7#10 + x#8#5 + x#9#6 + x#5#9 >= 1
 ogr_77:
  + x#4#9 + x#7#10 + x#8#5 + x#9#6 + x#5#9 >= 1
 ogr_78:
  + x#2#2 + x#7#0 + x#8#1 + x#8#5 >= 1
 ogr_79:
  + x#2#2 + x#7#0 + x#8#1 + x#8#5 + x#9#6 >= 1
 ogr_80:
  + x#2#2 + x#7#0 + x#8#1 + x#8#5 + x#9#6 >= 1
 ogr_81:
  + x#2#2 + x#7#0 + x#8#1 + x#8#5 + x#9#6 >= 1
 ogr_82:
  + x#2#2 + x#4#9 + x#7#0 + x#8#1 + x#8#5 + x#8#6
  + x#9#6 + x#5#9 >= 1
 ogr_83:
  + x#2#2 + x#4#9 + x#7#0 + x#8#1 + x#8#5 + x#8#6
  + x#9#6 + x#5#9 + x#0#5 >= 1
 ogr_84:
  + x#4#9 + x#8#5 + x#8#6 + x#9#6 + x#5#9 + x#5#6
  >= 1
 ogr_85:
  + x#4#9 + x#8#5 + x#8#6 + x#9#6 + x#5#9 >= 1
 ogr_86:
  + x#4#9 + x#7#10 + x#8#5 + x#8#6 + x#9#6 + x#5#9
  >= 1
 ogr_87:
  + x#4#9 + x#7#10 + x#8#5 + x#9#6 + x#5#9 >= 1
 ogr_88:
  + x#4#9 + x#7#10 + x#8#5 + x#9#6 + x#5#9 >= 1
 ogr_89:
  + x#7#0 + x#8#1 + x#8#5 >= 1
 ogr_90:
  + x#7#0 + x#8#1 + x#8#5 + x#9#6 >= 1
 ogr_91:
  + x#2#2 + x#7#0 + x#8#1 + x#8#5 + x#9#6 >= 1
 ogr_92:
  + x#7#0 + x#8#1 + x#8#5 + x#8#6 + x#9#6 >= 1
 ogr_93:
  + x#7#0 + x#8#1 + x#8#5 + x#8#6 + x#9#6 + x#5#9
  >= 1
 ogr_94:
  + x#4#9 + x#8#1 + x#8#5 + x#8#6 + x#9#6 + x#5#9
  >= 1
 ogr_95:
  + x#4#9 + x#8#1 + x#8#5 + x#8#6 + x#9#6 + x#5#9
  >= 1
 ogr_96:
  + x#4#9 + x#8#5 + x#8#6 + x#9#6 + x#5#9 >= 1
 ogr_97:
  + x#4#9 + x#8#5 + x#8#6 + x#9#6 + x#5#9 >= 1
 ogr_98:
  + x#4#9 + x#7#10 + x#8#5 + x#8#6 + x#9#6 + x#5#9
  >= 1
 ogr_99:
  + x#4#9 + x#7#10 + x#8#5 + x#9#6 + x#5#9 >= 1
 ogr_100:
  + x#7#0 + x#8#1 + x#8#5 + x#9#6 >= 1
 ogr_101:
  + x#7#0 + x#8#1 + x#8#5 + x#9#6 >= 1
 ogr_102:
  + x#7#0 + x#8#1 + x#8#5 + x#9#6 >= 1
 ogr_103:
  + x#7#0 + x#8#1 + x#8#5 + x#9#6 >= 1
 ogr_104:
  + x#7#0 + x#8#1 + x#8#5 + x#8#6 + x#9#6 >= 1
 ogr_105:
  + x#8#1 + x#8#5 + x#8#6 + x#9#6 + x#5#9 >= 1
 ogr_106:
  + x#4#9 + x#8#5 + x#8#6 + x#9#6 + x#5#9 >= 1
 ogr_107:
  + x#4#9 + x#8#5 + x#8#6 + x#9#6 + x#5#9 >= 1
 ogr_108:
  + x#4#9 + x#8#5 + x#8#6 + x#9#6 + x#5#9 >= 1
 ogr_109:
  + x#4#9 + x#8#5 + x#9#6 + x#5#9 >= 1
 ogr_110:
  + x#4#9 + x#7#10 + x#8#5 + x#9#6 + x#5#9 >= 1
 ogr_111:
  + x#7#0 + x#8#1 + x#8#5 >= 1
 ogr_112:
  + x#7#0 + x#8#1 + x#8#5 + x#9#6 >= 1
 ogr_113:
  + x#7#0 + x#8#1 + x#8#5 + x#9#6 >= 1
 ogr_114:
  + x#7#0 + x#8#1 + x#8#5 + x#9#6 >= 1
 ogr_115:
  + x#7#0 + x#8#1 + x#8#5 + x#8#6 + x#9#6 >= 1
 ogr_116:
  + x#8#1 + x#8#5 + x#8#6 + x#9#6 >= 1
 ogr_117:
  + x#8#5 + x#8#6 + x#9#6 + x#5#9 >= 1
 ogr_118:
  + x#8#5 + x#8#6 + x#9#6 + x#5#9 >= 1
 ogr_119:
  + x#8#5 + x#8#6 + x#9#6 + x#5#9 >= 1
 ogr_120:
  + x#4#9 + x#8#5 + x#9#6 + x#5#9 >= 1
 ogr_121:
  + x#8#5 + x#9#6 + x#5#9 >= 1
Bounds
 0 <= x#0#2 <= 1
 0 <= x#0#0 <= 1
 0 <= x#0#5 <= 1
 0 <= x#5#6 <= 1
 0 <= x#5#9 <= 1
 0 <= x#9#6 <= 1
 0 <= x#1#6 <= 1
 0 <= x#1#8 <= 1
 0 <= x#8#6 <= 1
 0 <= x#8#5 <= 1
 0 <= x#8#1 <= 1
 0 <= x#7#0 <= 1
 0 <= x#7#10 <= 1
 0 <= x#4#9 <= 1
 0 <= x#2#2 <= 1
General
 x#0#2
 x#0#0
 x#0#5
 x#5#6
 x#5#9
 x#9#6
 x#1#6
 x#1#8
 x#8#6
 x#8#5
 x#8#1
 x#7#0
 x#7#10
 x#4#9
 x#2#2
End
